0 0 0 0
0 1 2 0
0 2 1 0
0 3 2 0
0 4 2 7
0 5 0 7
0 6 2 8
0 7 2 8
0 8 0 14
0 9 0 15
0 10 0 19
0 11 2 8
0 12 2 8
0 13 2 20
0 14 1 17
0 15 2 17
0 16 2 8
0 17 1 17
0 18 2 15
0 19 1 29
0 20 2 35
0 21 0 35
0 22 2 23
0 23 1 35
0 24 2 38
0 25 0 47
0 26 2 23
0 27 0 48
0 28 0 50
0 29 2 45
0 30 2 32
0 31 0 51
